12° run output:
{
    "Function": "kroB750.tsp",
    "Problem dimension": [
        334,
        677,
        47,
        694,
        730,
        747,
        137,
        481,
        480,
        487,
        488,
        682,
        350,
        213,
        140,
        40,
        471,
        344,
        409,
        28,
        702,
        584,
        493,
        634,
        399,
        33,
        620,
        492,
        467,
        17,
        364,
        429,
        239,
        717,
        382,
        390,
        222,
        508,
        302,
        170,
        276,
        593,
        87,
        184,
        653,
        366,
        388,
        323,
        283,
        720,
        734,
        570,
        540,
        693,
        625,
        22,
        456,
        379,
        502,
        298,
        242,
        44,
        63,
        343,
        457,
        551,
        157,
        325,
        332,
        158,
        591,
        149,
        41,
        288,
        309,
        336,
        93,
        182,
        116,
        538,
        231,
        632,
        704,
        308,
        196,
        713,
        187,
        449,
        128,
        658,
        235,
        612,
        290,
        352,
        574,
        175,
        251,
        371,
        558,
        439,
        590,
        123,
        162,
        387,
        474,
        678,
        432,
        179,
        373,
        230,
        733,
        555,
        465,
        72,
        743,
        378,
        269,
        348,
        249,
        580,
        246,
        398,
        698,
        266,
        587,
        119,
        206,
        95,
        716,
        517,
        567,
        739,
        604,
        626,
        214,
        234,
        417,
        205,
        315,
        164,
        529,
        549,
        464,
        138,
        489,
        114,
        8,
        211,
        541,
        510,
        328,
        671,
        135,
        642,
        247,
        652,
        287,
        746,
        595,
        696,
        7,
        180,
        663,
        455,
        670,
        48,
        24,
        131,
        500,
        647,
        304,
        108,
        703,
        423,
        524,
        633,
        686,
        548,
        729,
        225,
        655,
        745,
        504,
        20,
        573,
        106,
        96,
        29,
        723,
        217,
        664,
        556,
        740,
        210,
        599,
        260,
        691,
        177,
        613,
        369,
        498,
        621,
        250,
        490,
        629,
        648,
        674,
        646,
        233,
        470,
        404,
        521,
        169,
        657,
        724,
        589,
        536,
        728,
        59,
        125,
        550,
        61,
        603,
        320,
        121,
        194,
        111,
        62,
        25,
        74,
        310,
        69,
        400,
        259,
        296,
        687,
        329,
        166,
        9,
        370,
        451,
        527,
        267,
        676,
        732,
        582,
        291,
        330,
        300,
        386,
        644,
        101,
        607,
        635,
        410,
        224,
        188,
        215,
        228,
        419,
        383,
        190,
        461,
        566,
        256,
        505,
        597,
        77,
        448,
        640,
        380,
        397,
        85,
        520,
        293,
        84,
        34,
        237,
        718,
        495,
        661,
        679,
        494,
        307,
        748,
        542,
        173,
        518,
        594,
        681,
        73,
        547,
        656,
        112,
        327,
        583,
        407,
        227,
        129,
        30,
        15,
        243,
        347,
        337,
        248,
        668,
        37,
        365,
        110,
        596,
        715,
        546,
        654,
        150,
        575,
        360,
        314,
        79,
        601,
        586,
        375,
        226,
        731,
        486,
        75,
        313,
        592,
        70,
        156,
        651,
        305,
        218,
        353,
        526,
        706,
        650,
        295,
        628,
        515,
        469,
        741,
        385,
        445,
        263,
        253,
        447,
        615,
        340,
        363,
        662,
        21,
        120,
        396,
        506,
        82,
        581,
        299,
        14,
        102,
        701,
        86,
        65,
        712,
        600,
        649,
        462,
        39,
        4,
        427,
        229,
        434,
        675,
        630,
        338,
        466,
        94,
        422,
        683,
        12,
        616,
        528,
        319,
        394,
        413,
        381,
        673,
        50,
        257,
        236,
        220,
        292,
        472,
        31,
        104,
        317,
        707,
        537,
        485,
        605,
        35,
        660,
        168,
        357,
        441,
        359,
        67,
        301,
        208,
        132,
        638,
        561,
        145,
        585,
        450,
        109,
        458,
        216,
        136,
        697,
        10,
        165,
        198,
        463,
        254,
        282,
        281,
        408,
        421,
        692,
        163,
        349,
        482,
        193,
        38,
        362,
        144,
        115,
        83,
        192,
        80,
        16,
        289,
        611,
        501,
        513,
        376,
        155,
        430,
        425,
        610,
        440,
        453,
        690,
        99,
        100,
        141,
        742,
        452,
        0,
        460,
        744,
        726,
        420,
        384,
        285,
        54,
        318,
        523,
        277,
        241,
        637,
        666,
        659,
        391,
        26,
        503,
        183,
        60,
        207,
        161,
        614,
        415,
        189,
        45,
        406,
        569,
        565,
        271,
        244,
        424,
        405,
        426,
        497,
        602,
        545,
        105,
        643,
        107,
        738,
        708,
        245,
        619,
        130,
        355,
        442,
        89,
        339,
        576,
        525,
        204,
        19,
        81,
        147,
        411,
        631,
        443,
        477,
        167,
        255,
        476,
        393,
        667,
        262,
        736,
        568,
        152,
        311,
        622,
        240,
        418,
        261,
        534,
        139,
        475,
        403,
        178,
        148,
        710,
        191,
        316,
        700,
        564,
        49,
        507,
        446,
        444,
        68,
        491,
        354,
        181,
        219,
        721,
        522,
        358,
        275,
        160,
        341,
        18,
        516,
        636,
        221,
        374,
        519,
        695,
        171,
        598,
        372,
        64,
        722,
        438,
        459,
        530,
        377,
        223,
        342,
        331,
        428,
        56,
        268,
        608,
        709,
        559,
        71,
        552,
        479,
        118,
        306,
        42,
        737,
        122,
        57,
        264,
        203,
        252,
        684,
        563,
        32,
        176,
        609,
        294,
        351,
        639,
        13,
        562,
        437,
        153,
        23,
        142,
        238,
        286,
        53,
        117,
        124,
        618,
        699,
        571,
        402,
        58,
        414,
        368,
        76,
        623,
        533,
        627,
        579,
        553,
        509,
        134,
        97,
        560,
        78,
        133,
        66,
        272,
        212,
        436,
        195,
        431,
        617,
        578,
        345,
        454,
        711,
        127,
        1,
        511,
        202,
        280,
        3,
        52,
        151,
        6,
        92,
        499,
        725,
        55,
        669,
        265,
        588,
        154,
        672,
        346,
        312,
        624,
        645,
        27,
        126,
        335,
        36,
        143,
        433,
        2,
        324,
        278,
        185,
        680,
        322,
        367,
        496,
        484,
        514,
        90,
        735,
        535,
        665,
        577,
        209,
        468,
        435,
        303,
        606,
        705,
        199,
        274,
        113,
        174,
        273,
        554,
        333,
        201,
        91,
        270,
        46,
        543,
        197,
        532,
        727,
        146,
        395,
        401,
        43,
        478,
        483,
        200,
        572,
        689,
        284,
        356,
        103,
        714,
        544,
        389,
        719,
        539,
        531,
        232,
        688,
        685,
        473,
        88,
        361,
        258,
        279,
        172,
        416,
        321,
        412,
        5,
        159,
        297,
        641,
        11,
        186,
        749,
        512,
        98,
        326,
        51,
        392,
        557
    ],
    "Global Optimum": 0,
    "Algorithm": "Genetic algorithm",
    "Parameters": {
        "population": 30,
        "offspring": 30,
        "mutation probability": 0.0013333333333333333,
        "crossover probability": 0.9
    },
    "Fitness": 957417,
    "Solution": [
        334,
        677,
        47,
        694,
        730,
        747,
        137,
        481,
        480,
        487,
        488,
        682,
        350,
        213,
        140,
        40,
        471,
        344,
        409,
        28,
        702,
        584,
        493,
        634,
        399,
        33,
        620,
        492,
        467,
        17,
        364,
        429,
        239,
        717,
        382,
        390,
        222,
        508,
        302,
        170,
        276,
        593,
        87,
        184,
        653,
        366,
        388,
        323,
        283,
        720,
        734,
        570,
        540,
        693,
        625,
        22,
        456,
        379,
        502,
        298,
        242,
        44,
        63,
        343,
        457,
        551,
        157,
        325,
        332,
        158,
        591,
        149,
        41,
        288,
        309,
        336,
        93,
        182,
        116,
        538,
        231,
        632,
        704,
        308,
        196,
        713,
        187,
        449,
        128,
        658,
        235,
        612,
        290,
        352,
        574,
        175,
        251,
        371,
        558,
        439,
        590,
        123,
        162,
        387,
        474,
        678,
        432,
        179,
        373,
        230,
        733,
        555,
        465,
        72,
        743,
        378,
        269,
        348,
        249,
        580,
        246,
        398,
        698,
        266,
        587,
        119,
        206,
        95,
        716,
        517,
        567,
        739,
        604,
        626,
        214,
        234,
        417,
        205,
        315,
        164,
        529,
        549,
        464,
        138,
        489,
        114,
        8,
        211,
        541,
        510,
        328,
        671,
        135,
        642,
        247,
        652,
        287,
        746,
        595,
        696,
        7,
        180,
        663,
        455,
        670,
        48,
        24,
        131,
        500,
        647,
        304,
        108,
        703,
        423,
        524,
        633,
        686,
        548,
        729,
        225,
        655,
        745,
        504,
        20,
        573,
        106,
        96,
        29,
        723,
        217,
        664,
        556,
        740,
        210,
        599,
        260,
        691,
        177,
        613,
        369,
        498,
        621,
        250,
        490,
        629,
        648,
        674,
        646,
        233,
        470,
        404,
        521,
        169,
        657,
        724,
        589,
        536,
        728,
        59,
        125,
        550,
        61,
        603,
        320,
        121,
        194,
        111,
        62,
        25,
        74,
        310,
        69,
        400,
        259,
        296,
        687,
        329,
        166,
        9,
        370,
        451,
        527,
        267,
        676,
        732,
        582,
        291,
        330,
        300,
        386,
        644,
        101,
        607,
        635,
        410,
        224,
        188,
        215,
        228,
        419,
        383,
        190,
        461,
        566,
        256,
        505,
        597,
        77,
        448,
        640,
        380,
        397,
        85,
        520,
        293,
        84,
        34,
        237,
        718,
        495,
        661,
        679,
        494,
        307,
        748,
        542,
        173,
        518,
        594,
        681,
        73,
        547,
        656,
        112,
        327,
        583,
        407,
        227,
        129,
        30,
        15,
        243,
        347,
        337,
        248,
        668,
        37,
        365,
        110,
        596,
        715,
        546,
        654,
        150,
        575,
        360,
        314,
        79,
        601,
        586,
        375,
        226,
        731,
        486,
        75,
        313,
        592,
        70,
        156,
        651,
        305,
        218,
        353,
        526,
        706,
        650,
        295,
        628,
        515,
        469,
        741,
        385,
        445,
        263,
        253,
        447,
        615,
        340,
        363,
        662,
        21,
        120,
        396,
        506,
        82,
        581,
        299,
        14,
        102,
        701,
        86,
        65,
        712,
        600,
        649,
        462,
        39,
        4,
        427,
        229,
        434,
        675,
        630,
        338,
        466,
        94,
        422,
        683,
        12,
        616,
        528,
        319,
        394,
        413,
        381,
        673,
        50,
        257,
        236,
        220,
        292,
        472,
        31,
        104,
        317,
        707,
        537,
        485,
        605,
        35,
        660,
        168,
        357,
        441,
        359,
        67,
        301,
        208,
        132,
        638,
        561,
        145,
        585,
        450,
        109,
        458,
        216,
        136,
        697,
        10,
        165,
        198,
        463,
        254,
        282,
        281,
        408,
        421,
        692,
        163,
        349,
        482,
        193,
        38,
        362,
        144,
        115,
        83,
        192,
        80,
        16,
        289,
        611,
        501,
        513,
        376,
        155,
        430,
        425,
        610,
        440,
        453,
        690,
        99,
        100,
        141,
        742,
        452,
        0,
        460,
        744,
        726,
        420,
        384,
        285,
        54,
        318,
        523,
        277,
        241,
        637,
        666,
        659,
        391,
        26,
        503,
        183,
        60,
        207,
        161,
        614,
        415,
        189,
        45,
        406,
        569,
        565,
        271,
        244,
        424,
        405,
        426,
        497,
        602,
        545,
        105,
        643,
        107,
        738,
        708,
        245,
        619,
        130,
        355,
        442,
        89,
        339,
        576,
        525,
        204,
        19,
        81,
        147,
        411,
        631,
        443,
        477,
        167,
        255,
        476,
        393,
        667,
        262,
        736,
        568,
        152,
        311,
        622,
        240,
        418,
        261,
        534,
        139,
        475,
        403,
        178,
        148,
        710,
        191,
        316,
        700,
        564,
        49,
        507,
        446,
        444,
        68,
        491,
        354,
        181,
        219,
        721,
        522,
        358,
        275,
        160,
        341,
        18,
        516,
        636,
        221,
        374,
        519,
        695,
        171,
        598,
        372,
        64,
        722,
        438,
        459,
        530,
        377,
        223,
        342,
        331,
        428,
        56,
        268,
        608,
        709,
        559,
        71,
        552,
        479,
        118,
        306,
        42,
        737,
        122,
        57,
        264,
        203,
        252,
        684,
        563,
        32,
        176,
        609,
        294,
        351,
        639,
        13,
        562,
        437,
        153,
        23,
        142,
        238,
        286,
        53,
        117,
        124,
        618,
        699,
        571,
        402,
        58,
        414,
        368,
        76,
        623,
        533,
        627,
        579,
        553,
        509,
        134,
        97,
        560,
        78,
        133,
        66,
        272,
        212,
        436,
        195,
        431,
        617,
        578,
        345,
        454,
        711,
        127,
        1,
        511,
        202,
        280,
        3,
        52,
        151,
        6,
        92,
        499,
        725,
        55,
        669,
        265,
        588,
        154,
        672,
        346,
        312,
        624,
        645,
        27,
        126,
        335,
        36,
        143,
        433,
        2,
        324,
        278,
        185,
        680,
        322,
        367,
        496,
        484,
        514,
        90,
        735,
        535,
        665,
        577,
        209,
        468,
        435,
        303,
        606,
        705,
        199,
        274,
        113,
        174,
        273,
        554,
        333,
        201,
        91,
        270,
        46,
        543,
        197,
        532,
        727,
        146,
        395,
        401,
        43,
        478,
        483,
        200,
        572,
        689,
        284,
        356,
        103,
        714,
        544,
        389,
        719,
        539,
        531,
        232,
        688,
        685,
        473,
        88,
        361,
        258,
        279,
        172,
        416,
        321,
        412,
        5,
        159,
        297,
        641,
        11,
        186,
        749,
        512,
        98,
        326,
        51,
        392,
        557
    ],
    "Nb of functions evaluations": 200010,
    "Computational time in seconds": 1665.961267232895,
    "Stopping criterion in evaluations": 200000
}